MARKOV
8
 2 2 2 2 2 2 2 2
9
 2 0 6 
 2 4 5
 2 1 5
 2 4 6
 2 3 6
 2 3 4
 2 1 3
 2 3 7
 2 2 3

4
 0.128 0.872 0.920 0.080

4
 0.274 0.225 0.225 0.274

4
 0.183 0.316 0.316 0.183

4
 0.079 0.420 0.420 0.079

4
 0.354 0.145 0.145 0.354

4
 0.026 0.473 0.473 0.026

4
 0.079 0.420 0.420 0.079

4
 0.127 0.372 0.372 0.127

4
 0.206 0.293 0.293 0.206
